# Solution for model GasLib-40
# Objective value = 4.3832965670118625e+01
loadshed[innode_1] 0
loadshed[innode_2] 0
loadshed[innode_3] 0
loadshed[innode_4] 0
loadshed[innode_5] 0
loadshed[innode_6] 0
loadshed[innode_7] 0
loadshed[innode_8] 0
loadshed[source_1] -2.0899130979515945e-01
loadshed[source_2] 1.5332044135823963e-01
loadshed[source_3] 3.3293627834229389e-01
loadshed[sink_1] 0
loadshed[sink_2] 0
loadshed[sink_3] 0
loadshed[sink_4] 0
loadshed[sink_5] 0
loadshed[sink_6] 0
loadshed[sink_7] 0
loadshed[sink_8] 0
loadshed[sink_9] 0
loadshed[sink_10] 0
loadshed[sink_11] 0
loadshed[sink_12] 1
loadshed[sink_13] 0
loadshed[sink_14] 0
loadshed[sink_15] 0
loadshed[sink_16] 0
loadshed[sink_17] 0
loadshed[sink_18] 0
loadshed[sink_19] 0
loadshed[sink_20] 0
loadshed[sink_21] 1
loadshed[sink_22] 0
loadshed[sink_23] 0
loadshed[sink_24] 6.8023229575247646e-01
loadshed[sink_25] 0
loadshed[sink_26] 0
loadshed[sink_27] 0
loadshed[sink_28] 0
loadshed[sink_29] 0
flow[source_1,sink_3] 1.9112977199643615e+02
flow[innode_1,sink_16] 1.6354166666666970e+01
flow[innode_6,sink_13] 9.0228776143219829e+00
flow[sink_13,sink_14] -7.3312890523446850e+00
flow[sink_14,sink_10] -2.3685455719011543e+01
flow[sink_25,sink_26] 1.2227555670079904e+02
flow[sink_26,sink_9] 1.6354166666669244e+01
flow[sink_9,sink_18] 0
flow[sink_26,sink_4] 8.9567223367463129e+01
flow[sink_4,sink_20] -1.5233742049522510e+01
flow[sink_18,sink_6] -1.6354166666667879e+01
flow[sink_25,innode_8] -1.5842143866309979e+02
flow[sink_6,sink_7] -6.5416666666666671e+01
flow[sink_6,sink_22] 3.2708333333333641e+01
flow[sink_7,sink_24] 5.2295343298813730e+00
flow[sink_22,sink_1] 1.6354166666666970e+01
flow[sink_24,sink_21] 0
flow[sink_21,sink_12] 0
flow[sink_7,sink_5] -8.7000367663216224e+01
flow[sink_5,sink_17] -1.0335453432988290e+02
flow[sink_17,sink_4] -8.8446798750318962e+01
flow[sink_17,sink_8] -3.1261902246230608e+01
flow[sink_3,sink_23] 16.3541666666697
flow[sink_8,sink_20] -4.7616068912897276e+01
flow[sink_25,sink_20] 7.9203977629086467e+01
flow[sink_25,sink_15] -6.8435139947774289e+01
flow[sink_15,sink_29] 0
flow[sink_29,sink_28] 1.6354166666667879e+01
flow[sink_29,sink_2] 1.0114347328110763e+02
flow[sink_2,sink_15] 8.4789306614440960e+01
flow[sink_29,innode_7] -1.3385180661444218e+02
flow[innode_4,sink_19] 4.0308998833149936e+01
flow[sink_19,innode_3] 72.7479557190118
flow[innode_4,innode_5] 6.5147290219195057e+01
flow[sink_27,innode_5] -6.5147290219195057e+01
flow[sink_27,sink_19] 4.8793123552528385e+01
flow[sink_10,sink_11] 3.2708333333333641e+01
flow[sink_10,innode_2] 0
flow[sink_10,innode_3] -72.7479557190118
flow[innode_6,sink_25] -9.0228776143219829e+00
flow[sink_11,innode_1] 1.6354166666666970e+01
flow[sink_19,innode_2] 0
flow[source_3,innode_4] 105.456289052345
flow[source_2,innode_7] 1.3385180661444218e+02
flow[sink_3,innode_8] 1.5842143866309979e+02
pressure[innode_1] 7.5194330538984815e+01
pressure[innode_2] 7.9380229749354683e+01
pressure[innode_3] 7.9219137639227256e+01
pressure[innode_4] 81.01325
pressure[innode_5] 8.0968438258559985e+01
pressure[innode_6] 7.4262364699094931e+01
pressure[innode_7] 81.01325
pressure[innode_8] 8.0374376186435285e+01
pressure[source_1] 81.01325
pressure[source_2] 81.01325
pressure[source_3] 81.01325
pressure[sink_1] 4.0015846351309143e+00
pressure[sink_2] 7.4871160211370224e+01
pressure[sink_3] 8.0374376186435285e+01
pressure[sink_4] 5.4262760459848181e+01
pressure[sink_5] 4.3183449716370056e+01
pressure[sink_6] 6.1026622455182880e+00
pressure[sink_7] 7.0006771491184780e+00
pressure[sink_8] 5.2062208244089923e+01
pressure[sink_9] 6.4671729965167515e+01
pressure[sink_10] 7.5346031846588360e+01
pressure[sink_11] 7.5194330538984815e+01
pressure[sink_12] 1.01325
pressure[sink_13] 7.4212623082670092e+01
pressure[sink_14] 7.4225743048917010e+01
pressure[sink_15] 7.4594341812536243e+01
pressure[sink_16] 7.4172680704167135e+01
pressure[sink_17] 5.0882615455914745e+01
pressure[sink_18] 5.6659573027650483e+00
pressure[sink_19] 7.9380229749354683e+01
pressure[sink_20] 5.5380378609635805e+01
pressure[sink_21] 1.01325
pressure[sink_22] 5.0653537774859245e+00
pressure[sink_23] 80.2096581747755
pressure[sink_24] 1.01325
pressure[sink_25] 7.4262364699094931e+01
pressure[sink_26] 6.5650569049109933e+01
pressure[sink_27] 8.0427836128989327e+01
pressure[sink_28] 7.7137956263296459e+01
pressure[sink_29] 7.7433238536913635e+01
interdiction[source_1,sink_3] 0
interdiction[innode_1,sink_16] 0
interdiction[innode_6,sink_13] 0
interdiction[sink_13,sink_14] 0
interdiction[sink_14,sink_10] 0
interdiction[sink_25,sink_26] 0
interdiction[sink_26,sink_9] 0
interdiction[sink_9,sink_18] 1
interdiction[sink_26,sink_4] 0
interdiction[sink_4,sink_20] 0
interdiction[sink_18,sink_6] 0
interdiction[sink_25,innode_8] 0
interdiction[sink_6,sink_7] 0
interdiction[sink_6,sink_22] 0
interdiction[sink_7,sink_24] 0
interdiction[sink_22,sink_1] 0
interdiction[sink_24,sink_21] 0
interdiction[sink_21,sink_12] 0
interdiction[sink_7,sink_5] 0
interdiction[sink_5,sink_17] 0
interdiction[sink_17,sink_4] 0
interdiction[sink_17,sink_8] 0
interdiction[sink_3,sink_23] 0
interdiction[sink_8,sink_20] 0
interdiction[sink_25,sink_20] 0
interdiction[sink_25,sink_15] 0
interdiction[sink_15,sink_29] 1
interdiction[sink_29,sink_28] 0
interdiction[sink_29,sink_2] 0
interdiction[sink_2,sink_15] 0
interdiction[sink_29,innode_7] 0
interdiction[innode_4,sink_19] 0
interdiction[sink_19,innode_3] 0
interdiction[innode_4,innode_5] 0
interdiction[sink_27,innode_5] 0
interdiction[sink_27,sink_19] 0
interdiction[sink_10,sink_11] 0
interdiction[sink_10,innode_2] 1
interdiction[sink_10,innode_3] 0
interdiction[innode_6,sink_25] 0
interdiction[sink_11,innode_1] 0
interdiction[sink_19,innode_2] 0
interdiction[source_3,innode_4] 0
interdiction[source_2,innode_7] 0
interdiction[sink_3,innode_8] 0
WCcheckFlow[source_1,sink_3] 39
WCcheckFlow[innode_1,sink_16] 1
WCcheckFlow[innode_6,sink_13] 13
WCcheckFlow[sink_13,sink_14] 12
WCcheckFlow[sink_14,sink_10] 11
WCcheckFlow[sink_25,sink_26] 15
WCcheckFlow[sink_26,sink_9] 1
WCcheckFlow[sink_9,sink_18] 0
WCcheckFlow[sink_26,sink_4] 13
WCcheckFlow[sink_4,sink_20] 1
WCcheckFlow[sink_18,sink_6] -1
WCcheckFlow[sink_25,innode_8] -36
WCcheckFlow[sink_6,sink_7] -4
WCcheckFlow[sink_6,sink_22] 2
WCcheckFlow[sink_7,sink_24] 3
WCcheckFlow[sink_22,sink_1] 1
WCcheckFlow[sink_24,sink_21] 2
WCcheckFlow[sink_21,sink_12] 1
WCcheckFlow[sink_7,sink_5] -8
WCcheckFlow[sink_5,sink_17] -9
WCcheckFlow[sink_17,sink_4] -11
WCcheckFlow[sink_17,sink_8] 1
WCcheckFlow[sink_3,sink_23] 1
WCcheckFlow[sink_8,sink_20] 0
WCcheckFlow[sink_25,sink_20] 0
WCcheckFlow[sink_25,sink_15] 6
WCcheckFlow[sink_15,sink_29] 0
WCcheckFlow[sink_29,sink_28] 1
WCcheckFlow[sink_29,sink_2] -4
WCcheckFlow[sink_2,sink_15] -5
WCcheckFlow[sink_29,innode_7] 2
WCcheckFlow[innode_4,sink_19] -4
WCcheckFlow[sink_19,innode_3] -6
WCcheckFlow[innode_4,innode_5] 2
WCcheckFlow[sink_27,innode_5] -1
WCcheckFlow[sink_27,sink_19] 0
WCcheckFlow[sink_10,sink_11] 3
WCcheckFlow[sink_10,innode_2] 0
WCcheckFlow[sink_10,innode_3] 7
WCcheckFlow[innode_6,sink_25] -14
WCcheckFlow[sink_11,innode_1] 2
WCcheckFlow[sink_19,innode_2] 1
WCcheckFlow[source_3,innode_4] -1
WCcheckFlow[source_2,innode_7] -1
WCcheckFlow[sink_3,innode_8] 37
